\ Model GR_Model_SN
\ LP format - for model browsing. Use MPS format to capture full model detail.
Maximize
  alpha
Subject To
 name1[0]: 280.8957579795534 x[0] - 5 x[3] - 19 x[4]
   + 206.9758216691446 x[6] + 147.8398726208176 x[7] - 19 x[8]
   + 236.5437961933081 x[9] - 11 x[12] - 15 x[13] - 18 x[14]
   + 88.70392357249055 x[16] + 177.4078471449811 x[18] - 14 x[19] + alpha
   + 1000 a[0] <= 1000
 name1[1]: 29.56797452416352 x[0] + 73.91993631040879 x[1] - 12 x[2]
   - 4 x[4] - 9 x[5] - 9 x[7] - 8 x[8] + 177.4078471449811 x[11]
   + 162.6238598828994 x[15] + 73.91993631040879 x[16] - 9 x[17]
   + 266.1117707174716 x[19] + alpha + 1000 a[1] <= 1000
 name1[2]: 266.1117707174716 x[0] - 9 x[2] + 44.35196178624528 x[3]
   + 29.56797452416352 x[4] - 19 x[5] + 192.1918344070629 x[6] - 8 x[7]
   + 103.4879108345723 x[8] - 14 x[13] - 10 x[14] + 236.5437961933081 x[15]
   + 133.0558853587358 x[16] - 16 x[17] + 280.8957579795534 x[19] + alpha
   + 1000 a[2] <= 1000
 name1[3]: - 16 x[4] + 59.13594904832703 x[5] + 44.35196178624528 x[6]
   - 14 x[11] - 15 x[12] + 236.5437961933081 x[13] - 6 x[16] - x[18]
   + 44.35196178624528 x[19] + alpha + 1000 a[3] <= 1000
 name1[4]: - 12 x[0] - 15 x[1] + 206.9758216691446 x[2]
   + 147.8398726208176 x[3] + 147.8398726208176 x[4] - 2 x[5] - 15 x[7]
   + 266.1117707174716 x[9] + 206.9758216691446 x[10] - x[11]
   + 206.9758216691446 x[14] - 19 x[15] - 5 x[16] - 13 x[17] + alpha
   + 1000 a[4] <= 1000
 name1[5]: 221.7598089312264 x[2] + 133.0558853587358 x[3] - 3 x[4]
   + 192.1918344070629 x[5] - 5 x[6] - x[7] + 29.56797452416352 x[8]
   + 118.2718980966541 x[12] + 192.1918344070629 x[13]
   + 44.35196178624528 x[14] + 14.78398726208176 x[15] - 18 x[16]
   - 16 x[17] - 17 x[18] - 16 x[19] + alpha + 1000 a[5] <= 1000
 name1[6]: 251.3277834553899 x[0] + 236.5437961933081 x[4] - 18 x[6]
   + 44.35196178624528 x[7] - 17 x[10] + 44.35196178624528 x[11]
   + 14.78398726208176 x[12] - 14 x[15] - 18 x[16] - 17 x[17] - 8 x[19]
   + alpha + 1000 a[6] <= 1000
 name1[7]: - 12 x[0] + 147.8398726208176 x[4] + 206.9758216691446 x[5]
   + 236.5437961933081 x[8] - 11 x[9] + 88.70392357249055 x[10]
   + 251.3277834553899 x[11] - 10 x[13] + 251.3277834553899 x[14]
   + 251.3277834553899 x[15] + 44.35196178624528 x[17] - 9 x[19] + alpha
   + 1000 a[7] <= 1000
 name1[8]: - 7 x[0] + 221.7598089312264 x[1] - 8 x[2]
   + 251.3277834553899 x[3] + 29.56797452416352 x[4] - 4 x[8] - 19 x[9]
   - 15 x[10] - 9 x[11] - 7 x[12] + 162.6238598828994 x[17] - 8 x[18]
   - 2 x[19] + alpha + 1000 a[8] <= 1000
 name1[9]: 221.7598089312264 x[0] - 11 x[1] + 103.4879108345723 x[2]
   - 7 x[3] - 6 x[5] + 88.70392357249055 x[6] - 7 x[8] - 5 x[9]
   + 192.1918344070629 x[10] + 236.5437961933081 x[12] - 13 x[13]
   - 12 x[14] + 266.1117707174716 x[15] + 14.78398726208176 x[17]
   + 73.91993631040879 x[18] - 2 x[19] + alpha + 1000 a[9] <= 1000
 name1[10]: - 4 x[0] - 13 x[1] + 280.8957579795534 x[2]
   + 251.3277834553899 x[3] - 13 x[6] - 8 x[7] + 280.8957579795534 x[8]
   - 17 x[9] + 118.2718980966541 x[11] + 118.2718980966541 x[12] - 7 x[13]
   - 3 x[15] + 192.1918344070629 x[18] + alpha + 1000 a[10] <= 1000
 name1[11]: 280.8957579795534 x[0] + 236.5437961933081 x[2]
   + 147.8398726208176 x[4] - 19 x[5] - 5 x[8] + 206.9758216691446 x[9]
   + 133.0558853587358 x[10] + 133.0558853587358 x[11]
   + 44.35196178624528 x[12] + 266.1117707174716 x[14]
   + 162.6238598828994 x[15] - 5 x[17] + alpha + 1000 a[11] <= 1000
 name1[12]: 88.70392357249055 x[1] + 147.8398726208176 x[3]
   + 177.4078471449811 x[6] - 8 x[7] + 236.5437961933081 x[8] - 16 x[9]
   - 3 x[10] + 192.1918344070629 x[12] - 17 x[16] - 2 x[17]
   + 192.1918344070629 x[18] - 3 x[19] + alpha + 1000 a[12] <= 1000
 name1[13]: 206.9758216691446 x[4] - 9 x[7] + 147.8398726208176 x[8]
   - 13 x[9] + 162.6238598828994 x[10] - 18 x[11] + 73.91993631040879 x[13]
   + 266.1117707174716 x[14] + 221.7598089312264 x[15] - 8 x[17] - 9 x[18]
   + alpha + 1000 a[13] <= 1000
 name1[14]: - 5 x[0] - 15 x[2] - 10 x[3] + 118.2718980966541 x[4]
   + 280.8957579795534 x[6] + 192.1918344070629 x[7] - 15 x[8] - 7 x[10]
   + 29.56797452416352 x[11] - 11 x[12] - 3 x[13] + 118.2718980966541 x[16]
   - 6 x[17] + 177.4078471449811 x[19] + alpha + 1000 a[14] <= 1000
 name1[15]: - 2 x[1] - 16 x[2] + 221.7598089312264 x[3] - 12 x[5]
   + 73.91993631040879 x[6] + 14.78398726208176 x[7] - 15 x[11]
   + 133.0558853587358 x[12] - 3 x[13] - 14 x[16] + 280.8957579795534 x[17]
   + 29.56797452416352 x[19] + alpha + 1000 a[15] <= 1000
 name1[16]: 147.8398726208176 x[1] + 236.5437961933081 x[5] - 19 x[6]
   + 103.4879108345723 x[7] - x[8] - 11 x[9] - 2 x[10] - 15 x[11]
   - 12 x[12] + 14.78398726208176 x[14] + 206.9758216691446 x[18]
   + 29.56797452416352 x[19] + alpha + 1000 a[16] <= 1000
 name1[17]: 14.78398726208176 x[0] + 177.4078471449811 x[4] - 5 x[5] - x[7]
   + 147.8398726208176 x[8] + 88.70392357249055 x[9] - 5 x[10]
   + 162.6238598828994 x[12] - 2 x[13] - 5 x[15] + 133.0558853587358 x[16]
   - 10 x[17] + alpha + 1000 a[17] <= 1000
 name1[18]: - 2 x[0] - 11 x[1] - 7 x[2] - 18 x[3] + 206.9758216691446 x[6]
   - 10 x[7] + 280.8957579795534 x[10] - 11 x[14] - 17 x[15]
   + 44.35196178624528 x[16] - 2 x[18] + alpha + 1000 a[18] <= 1000
 name1[19]: - 6 x[2] - 12 x[3] + 44.35196178624528 x[4]
   + 162.6238598828994 x[5] - 3 x[6] - 2 x[7] + 29.56797452416352 x[8]
   - 8 x[9] + 147.8398726208176 x[10] - 11 x[11] - 9 x[12]
   + 29.56797452416352 x[13] + 236.5437961933081 x[15] - 6 x[19] + alpha
   + 1000 a[19] <= 1000
 name2[0]: 19 x[0] + 14 x[6] + 10 x[7] + 16 x[9] + 6 x[16] + 12 x[18]
   - a[0] >= 0
 name2[1]: 2 x[0] + 5 x[1] + 12 x[11] + 11 x[15] + 5 x[16] + 18 x[19]
   - a[1] >= 0
 name2[2]: 18 x[0] + 3 x[3] + 2 x[4] + 13 x[6] + 7 x[8] + 16 x[15]
   + 9 x[16] + 19 x[19] - a[2] >= 0
 name2[3]: 4 x[5] + 3 x[6] + 16 x[13] + 3 x[19] - a[3] >= 0
 name2[4]: 14 x[2] + 10 x[3] + 10 x[4] + 18 x[9] + 14 x[10] + 14 x[14]
   - a[4] >= 0
 name2[5]: 15 x[2] + 9 x[3] + 13 x[5] + 2 x[8] + 8 x[12] + 13 x[13]
   + 3 x[14] + x[15] - a[5] >= 0
 name2[6]: 17 x[0] + 16 x[4] + 3 x[7] + 3 x[11] + x[12] - a[6] >= 0
 name2[7]: 10 x[4] + 14 x[5] + 16 x[8] + 6 x[10] + 17 x[11] + 17 x[14]
   + 17 x[15] + 3 x[17] - a[7] >= 0
 name2[8]: 15 x[1] + 17 x[3] + 2 x[4] + 11 x[17] - a[8] >= 0
 name2[9]: 15 x[0] + 7 x[2] + 6 x[6] + 13 x[10] + 16 x[12] + 18 x[15]
   + x[17] + 5 x[18] - a[9] >= 0
 name2[10]: 19 x[2] + 17 x[3] + 19 x[8] + 8 x[11] + 8 x[12] + 13 x[18]
   - a[10] >= 0
 name2[11]: 19 x[0] + 16 x[2] + 10 x[4] + 14 x[9] + 9 x[10] + 9 x[11]
   + 3 x[12] + 18 x[14] + 11 x[15] - a[11] >= 0
 name2[12]: 6 x[1] + 10 x[3] + 12 x[6] + 16 x[8] + 13 x[12] + 13 x[18]
   - a[12] >= 0
 name2[13]: 14 x[4] + 10 x[8] + 11 x[10] + 5 x[13] + 18 x[14] + 15 x[15]
   - a[13] >= 0
 name2[14]: 8 x[4] + 19 x[6] + 13 x[7] + 2 x[11] + 8 x[16] + 12 x[19]
   - a[14] >= 0
 name2[15]: 15 x[3] + 5 x[6] + x[7] + 9 x[12] + 19 x[17] + 2 x[19] - a[15]
   >= 0
 name2[16]: 10 x[1] + 16 x[5] + 7 x[7] + x[14] + 14 x[18] + 2 x[19] - a[16]
   >= 0
 name2[17]: x[0] + 12 x[4] + 10 x[8] + 6 x[9] + 11 x[12] + 9 x[16] - a[17]
   >= 0
 name2[18]: 14 x[6] + 19 x[10] + 3 x[16] - a[18] >= 0
 name2[19]: 3 x[4] + 11 x[5] + 2 x[8] + 10 x[10] + 2 x[13] + 16 x[15]
   - a[19] >= 0
 name3[0]: y[0] - z[0] - z[3] - z[4] - z[6] - z[7] - z[8] - z[9] - z[12]
   - z[13] - z[14] - z[16] - z[18] - z[19] <= 0
 name3[1]: y[1] - z[0] - z[1] - z[2] - z[4] - z[5] - z[7] - z[8] - z[11]
   - z[15] - z[16] - z[17] - z[19] <= 0
 name3[2]: y[2] - z[0] - z[2] - z[3] - z[4] - z[5] - z[6] - z[7] - z[8]
   - z[13] - z[14] - z[15] - z[16] - z[17] - z[19] <= 0
 name3[3]: y[3] - z[4] - z[5] - z[6] - z[11] - z[12] - z[13] - z[16]
   - z[18] - z[19] <= 0
 name3[4]: y[4] - z[0] - z[1] - z[2] - z[3] - z[4] - z[5] - z[7] - z[9]
   - z[10] - z[11] - z[14] - z[15] - z[16] - z[17] <= 0
 name3[5]: y[5] - z[2] - z[3] - z[4] - z[5] - z[6] - z[7] - z[8] - z[12]
   - z[13] - z[14] - z[15] - z[16] - z[17] - z[18] - z[19] <= 0
 name3[6]: y[6] - z[0] - z[4] - z[6] - z[7] - z[10] - z[11] - z[12] - z[15]
   - z[16] - z[17] - z[19] <= 0
 name3[7]: y[7] - z[0] - z[4] - z[5] - z[8] - z[9] - z[10] - z[11] - z[13]
   - z[14] - z[15] - z[17] - z[19] <= 0
 name3[8]: y[8] - z[0] - z[1] - z[2] - z[3] - z[4] - z[8] - z[9] - z[10]
   - z[11] - z[12] - z[17] - z[18] - z[19] <= 0
 name3[9]: y[9] - z[0] - z[1] - z[2] - z[3] - z[5] - z[6] - z[8] - z[9]
   - z[10] - z[12] - z[13] - z[14] - z[15] - z[17] - z[18] - z[19] <= 0
 name3[10]: y[10] - z[0] - z[1] - z[2] - z[3] - z[6] - z[7] - z[8] - z[9]
   - z[11] - z[12] - z[13] - z[15] - z[18] <= 0
 name3[11]: y[11] - z[0] - z[2] - z[4] - z[5] - z[8] - z[9] - z[10] - z[11]
   - z[12] - z[14] - z[15] - z[17] <= 0
 name3[12]: y[12] - z[1] - z[3] - z[6] - z[7] - z[8] - z[9] - z[10] - z[12]
   - z[16] - z[17] - z[18] - z[19] <= 0
 name3[13]: y[13] - z[4] - z[7] - z[8] - z[9] - z[10] - z[11] - z[13]
   - z[14] - z[15] - z[17] - z[18] <= 0
 name3[14]: y[14] - z[0] - z[2] - z[3] - z[4] - z[6] - z[7] - z[8] - z[10]
   - z[11] - z[12] - z[13] - z[16] - z[17] - z[19] <= 0
 name3[15]: y[15] - z[1] - z[2] - z[3] - z[5] - z[6] - z[7] - z[11] - z[12]
   - z[13] - z[16] - z[17] - z[19] <= 0
 name3[16]: y[16] - z[1] - z[5] - z[6] - z[7] - z[8] - z[9] - z[10] - z[11]
   - z[12] - z[14] - z[18] - z[19] <= 0
 name3[17]: y[17] - z[0] - z[4] - z[5] - z[7] - z[8] - z[9] - z[10] - z[12]
   - z[13] - z[15] - z[16] - z[17] <= 0
 name3[18]: y[18] - z[0] - z[1] - z[2] - z[3] - z[6] - z[7] - z[10] - z[14]
   - z[15] - z[16] - z[18] <= 0
 name3[19]: y[19] - z[2] - z[3] - z[4] - z[5] - z[6] - z[7] - z[8] - z[9]
   - z[10] - z[11] - z[12] - z[13] - z[15] - z[19] <= 0
 name4[0]: a[0] - z[3] - z[4] - z[8] - z[12] - z[13] - z[14] - z[19] <= 0
 name4[1]: a[1] - z[2] - z[4] - z[5] - z[7] - z[8] - z[17] <= 0
 name4[2]: a[2] - z[2] - z[5] - z[7] - z[13] - z[14] - z[17] <= 0
 name4[3]: a[3] - z[4] - z[11] - z[12] - z[16] - z[18] <= 0
 name4[4]: a[4] - z[0] - z[1] - z[5] - z[7] - z[11] - z[15] - z[16] - z[17]
   <= 0
 name4[5]: a[5] - z[4] - z[6] - z[7] - z[16] - z[17] - z[18] - z[19] <= 0
 name4[6]: a[6] - z[6] - z[10] - z[15] - z[16] - z[17] - z[19] <= 0
 name4[7]: a[7] - z[0] - z[9] - z[13] - z[19] <= 0
 name4[8]: a[8] - z[0] - z[2] - z[8] - z[9] - z[10] - z[11] - z[12] - z[18]
   - z[19] <= 0
 name4[9]: a[9] - z[1] - z[3] - z[5] - z[8] - z[9] - z[13] - z[14] - z[19]
   <= 0
 name4[10]: a[10] - z[0] - z[1] - z[6] - z[7] - z[9] - z[13] - z[15] <= 0
 name4[11]: a[11] - z[5] - z[8] - z[17] <= 0
 name4[12]: a[12] - z[7] - z[9] - z[10] - z[16] - z[17] - z[19] <= 0
 name4[13]: a[13] - z[7] - z[9] - z[11] - z[17] - z[18] <= 0
 name4[14]: a[14] - z[0] - z[2] - z[3] - z[8] - z[10] - z[12] - z[13]
   - z[17] <= 0
 name4[15]: a[15] - z[1] - z[2] - z[5] - z[11] - z[13] - z[16] <= 0
 name4[16]: a[16] - z[6] - z[8] - z[9] - z[10] - z[11] - z[12] <= 0
 name4[17]: a[17] - z[5] - z[7] - z[10] - z[13] - z[15] - z[17] <= 0
 name4[18]: a[18] - z[0] - z[1] - z[2] - z[3] - z[7] - z[14] - z[15]
   - z[18] <= 0
 name4[19]: a[19] - z[2] - z[3] - z[6] - z[7] - z[9] - z[11] - z[12]
   - z[19] <= 0
 name5[0]: a[0] - z[0] - z[6] - z[7] - z[9] - z[16] - z[18] <= 0
 name5[1]: a[1] - z[0] - z[1] - z[11] - z[15] - z[16] - z[19] <= 0
 name5[2]: a[2] - z[0] - z[3] - z[4] - z[6] - z[8] - z[15] - z[16] - z[19]
   <= 0
 name5[3]: a[3] - z[5] - z[6] - z[13] - z[19] <= 0
 name5[4]: a[4] - z[2] - z[3] - z[4] - z[9] - z[10] - z[14] <= 0
 name5[5]: a[5] - z[2] - z[3] - z[5] - z[8] - z[12] - z[13] - z[14] - z[15]
   <= 0
 name5[6]: a[6] - z[0] - z[4] - z[7] - z[11] - z[12] <= 0
 name5[7]: a[7] - z[4] - z[5] - z[8] - z[10] - z[11] - z[14] - z[15]
   - z[17] <= 0
 name5[8]: a[8] - z[1] - z[3] - z[4] - z[17] <= 0
 name5[9]: a[9] - z[0] - z[2] - z[6] - z[10] - z[12] - z[15] - z[17]
   - z[18] <= 0
 name5[10]: a[10] - z[2] - z[3] - z[8] - z[11] - z[12] - z[18] <= 0
 name5[11]: a[11] - z[0] - z[2] - z[4] - z[9] - z[10] - z[11] - z[12]
   - z[14] - z[15] <= 0
 name5[12]: a[12] - z[1] - z[3] - z[6] - z[8] - z[12] - z[18] <= 0
 name5[13]: a[13] - z[4] - z[8] - z[10] - z[13] - z[14] - z[15] <= 0
 name5[14]: a[14] - z[4] - z[6] - z[7] - z[11] - z[16] - z[19] <= 0
 name5[15]: a[15] - z[3] - z[6] - z[7] - z[12] - z[17] - z[19] <= 0
 name5[16]: a[16] - z[1] - z[5] - z[7] - z[14] - z[18] - z[19] <= 0
 name5[17]: a[17] - z[0] - z[4] - z[8] - z[9] - z[12] - z[16] <= 0
 name5[18]: a[18] - z[6] - z[10] - z[16] <= 0
 name5[19]: a[19] - z[4] - z[5] - z[8] - z[10] - z[13] - z[15] <= 0
 name6[0]: - y[0] + a[0] <= 0
 name6[1]: - y[1] + a[1] <= 0
 name6[2]: - y[2] + a[2] <= 0
 name6[3]: - y[3] + a[3] <= 0
 name6[4]: - y[4] + a[4] <= 0
 name6[5]: - y[5] + a[5] <= 0
 name6[6]: - y[6] + a[6] <= 0
 name6[7]: - y[7] + a[7] <= 0
 name6[8]: - y[8] + a[8] <= 0
 name6[9]: - y[9] + a[9] <= 0
 name6[10]: - y[10] + a[10] <= 0
 name6[11]: - y[11] + a[11] <= 0
 name6[12]: - y[12] + a[12] <= 0
 name6[13]: - y[13] + a[13] <= 0
 name6[14]: - y[14] + a[14] <= 0
 name6[15]: - y[15] + a[15] <= 0
 name6[16]: - y[16] + a[16] <= 0
 name6[17]: - y[17] + a[17] <= 0
 name6[18]: - y[18] + a[18] <= 0
 name6[19]: - y[19] + a[19] <= 0
 name7[0]: - a[4] - a[7] - a[8] - a[10] - a[14] - a[18] + z[0] <= 0
 name7[1]: - a[4] - a[9] - a[10] - a[15] - a[18] + z[1] <= 0
 name7[2]: - a[1] - a[2] - a[8] - a[14] - a[15] - a[18] - a[19] + z[2]
   <= 0
 name7[3]: - a[0] - a[9] - a[14] - a[18] - a[19] + z[3] <= 0
 name7[4]: - a[0] - a[1] - a[3] - a[5] + z[4] <= 0
 name7[5]: - a[1] - a[2] - a[4] - a[9] - a[11] - a[15] - a[17] + z[5] <= 0
 name7[6]: - a[5] - a[6] - a[10] - a[16] - a[19] + z[6] <= 0
 name7[7]: - a[1] - a[2] - a[4] - a[5] - a[10] - a[12] - a[13] - a[17]
   - a[18] - a[19] + z[7] <= 0
 name7[8]: - a[0] - a[1] - a[8] - a[9] - a[11] - a[14] - a[16] + z[8] <= 0
 name7[9]: - a[7] - a[8] - a[9] - a[10] - a[12] - a[13] - a[16] - a[19]
   + z[9] <= 0
 name7[10]: - a[6] - a[8] - a[12] - a[14] - a[16] - a[17] + z[10] <= 0
 name7[11]: - a[3] - a[4] - a[8] - a[13] - a[15] - a[16] - a[19] + z[11]
   <= 0
 name7[12]: - a[0] - a[3] - a[8] - a[14] - a[16] - a[19] + z[12] <= 0
 name7[13]: - a[0] - a[2] - a[7] - a[9] - a[10] - a[14] - a[15] - a[17]
   + z[13] <= 0
 name7[14]: - a[0] - a[2] - a[9] - a[18] + z[14] <= 0
 name7[15]: - a[4] - a[6] - a[10] - a[17] - a[18] + z[15] <= 0
 name7[16]: - a[3] - a[4] - a[5] - a[6] - a[12] - a[15] + z[16] <= 0
 name7[17]: - a[1] - a[2] - a[4] - a[5] - a[6] - a[11] - a[12] - a[13]
   - a[14] - a[17] + z[17] <= 0
 name7[18]: - a[3] - a[5] - a[8] - a[13] - a[18] + z[18] <= 0
 name7[19]: - a[0] - a[5] - a[6] - a[7] - a[8] - a[9] - a[12] - a[19]
   + z[19] <= 0
 name8[0]: - a[0] - a[1] - a[2] - a[6] - a[9] - a[11] - a[17] + z[0] <= 0
 name8[1]: - a[1] - a[8] - a[12] - a[16] + z[1] <= 0
 name8[2]: - a[4] - a[5] - a[9] - a[10] - a[11] + z[2] <= 0
 name8[3]: - a[2] - a[4] - a[5] - a[8] - a[10] - a[12] - a[15] + z[3] <= 0
 name8[4]: - a[2] - a[4] - a[6] - a[7] - a[8] - a[11] - a[13] - a[14]
   - a[17] - a[19] + z[4] <= 0
 name8[5]: - a[3] - a[5] - a[7] - a[16] - a[19] + z[5] <= 0
 name8[6]: - a[0] - a[2] - a[3] - a[9] - a[12] - a[14] - a[15] - a[18]
   + z[6] <= 0
 name8[7]: - a[0] - a[6] - a[14] - a[15] - a[16] + z[7] <= 0
 name8[8]: - a[2] - a[5] - a[7] - a[10] - a[12] - a[13] - a[17] - a[19]
   + z[8] <= 0
 name8[9]: - a[0] - a[4] - a[11] - a[17] + z[9] <= 0
 name8[10]: - a[4] - a[7] - a[9] - a[11] - a[13] - a[18] - a[19] + z[10]
   <= 0
 name8[11]: - a[1] - a[6] - a[7] - a[10] - a[11] - a[14] + z[11] <= 0
 name8[12]: - a[5] - a[6] - a[9] - a[10] - a[11] - a[12] - a[15] - a[17]
   + z[12] <= 0
 name8[13]: - a[3] - a[5] - a[13] - a[19] + z[13] <= 0
 name8[14]: - a[4] - a[5] - a[7] - a[11] - a[13] - a[16] + z[14] <= 0
 name8[15]: - a[1] - a[2] - a[5] - a[7] - a[9] - a[11] - a[13] - a[19]
   + z[15] <= 0
 name8[16]: - a[0] - a[1] - a[2] - a[14] - a[17] - a[18] + z[16] <= 0
 name8[17]: - a[7] - a[8] - a[9] - a[15] + z[17] <= 0
 name8[18]: - a[0] - a[9] - a[10] - a[12] - a[16] + z[18] <= 0
 name8[19]: - a[1] - a[2] - a[3] - a[14] - a[15] - a[16] + z[19] <= 0
 name9[0]: x[0] - 1000 z[0] <= 0
 name9[1]: x[1] - 1000 z[1] <= 0
 name9[2]: x[2] - 1000 z[2] <= 0
 name9[3]: x[3] - 1000 z[3] <= 0
 name9[4]: x[4] - 1000 z[4] <= 0
 name9[5]: x[5] - 1000 z[5] <= 0
 name9[6]: x[6] - 1000 z[6] <= 0
 name9[7]: x[7] - 1000 z[7] <= 0
 name9[8]: x[8] - 1000 z[8] <= 0
 name9[9]: x[9] - 1000 z[9] <= 0
 name9[10]: x[10] - 1000 z[10] <= 0
 name9[11]: x[11] - 1000 z[11] <= 0
 name9[12]: x[12] - 1000 z[12] <= 0
 name9[13]: x[13] - 1000 z[13] <= 0
 name9[14]: x[14] - 1000 z[14] <= 0
 name9[15]: x[15] - 1000 z[15] <= 0
 name9[16]: x[16] - 1000 z[16] <= 0
 name9[17]: x[17] - 1000 z[17] <= 0
 name9[18]: x[18] - 1000 z[18] <= 0
 name9[19]: x[19] - 1000 z[19] <= 0
 name10[0]: - x[0] + z[0] <= 0
 name10[1]: - x[1] + z[1] <= 0
 name10[2]: - x[2] + z[2] <= 0
 name10[3]: - x[3] + z[3] <= 0
 name10[4]: - x[4] + z[4] <= 0
 name10[5]: - x[5] + z[5] <= 0
 name10[6]: - x[6] + z[6] <= 0
 name10[7]: - x[7] + z[7] <= 0
 name10[8]: - x[8] + z[8] <= 0
 name10[9]: - x[9] + z[9] <= 0
 name10[10]: - x[10] + z[10] <= 0
 name10[11]: - x[11] + z[11] <= 0
 name10[12]: - x[12] + z[12] <= 0
 name10[13]: - x[13] + z[13] <= 0
 name10[14]: - x[14] + z[14] <= 0
 name10[15]: - x[15] + z[15] <= 0
 name10[16]: - x[16] + z[16] <= 0
 name10[17]: - x[17] + z[17] <= 0
 name10[18]: - x[18] + z[18] <= 0
 name10[19]: - x[19] + z[19] <= 0
 name11: a[0] + a[1] + a[2] + a[3] + a[4] + a[5] + a[6] + a[7] + a[8]
   + a[9] + a[10] + a[11] + a[12] + a[13] + a[14] + a[15] + a[16] + a[17]
   + a[18] + a[19] >= 2
 name12: z[0] + z[1] + z[2] + z[3] + z[4] + z[5] + z[6] + z[7] + z[8]
   + z[9] + z[10] + z[11] + z[12] + z[13] + z[14] + z[15] + z[16] + z[17]
   + z[18] + z[19] >= 2
Bounds
 x[0] <= 1000
 x[1] <= 1000
 x[2] <= 1000
 x[3] <= 1000
 x[4] <= 1000
 x[5] <= 1000
 x[6] <= 1000
 x[7] <= 1000
 x[8] <= 1000
 x[9] <= 1000
 x[10] <= 1000
 x[11] <= 1000
 x[12] <= 1000
 x[13] <= 1000
 x[14] <= 1000
 x[15] <= 1000
 x[16] <= 1000
 x[17] <= 1000
 x[18] <= 1000
 x[19] <= 1000
Binaries
 y[0] y[1] y[2] y[3] y[4] y[5] y[6] y[7] y[8] y[9] y[10] y[11] y[12] y[13]
 y[14] y[15] y[16] y[17] y[18] y[19] a[0] a[1] a[2] a[3] a[4] a[5] a[6]
 a[7] a[8] a[9] a[10] a[11] a[12] a[13] a[14] a[15] a[16] a[17] a[18] a[19]
 z[0] z[1] z[2] z[3] z[4] z[5] z[6] z[7] z[8] z[9] z[10] z[11] z[12] z[13]
 z[14] z[15] z[16] z[17] z[18] z[19]
End
